WARNING: for repeatability, setting FPU to use double precision
============================[ Problem Statistics ]=============================
|                                                                             |
|  Number of variables:           500                                         |
|  Number of clauses:           15388                                         |
|  Parse time:                   0.00 s                                       |
|                                                                             |
c ============================[ Search Statistics ]==============================
c | Conflicts |          ORIGINAL         |          LEARNT          | Progress |
c |           |    Vars  Clauses Literals |    Limit  Clauses Lit/Cl |          |
c ===============================================================================
We had 255 decisions of which only 0 were on extended
We had 79473 decisions of which only 0 were on extended
We had 108828 decisions of which only 0 were on extended
We had 135864 decisions of which only 0 were on extended
We had 158533 decisions of which only 0 were on extended
We had 177634 decisions of which only 0 were on extended
We had 191541 decisions of which only 0 were on extended
We had 205203 decisions of which only 0 were on extended
We had 218940 decisions of which only 0 were on extended
We had 232505 decisions of which only 0 were on extended
We had 245665 decisions of which only 0 were on extended
We had 258916 decisions of which only 0 were on extended
We had 272413 decisions of which only 0 were on extended
We had 286116 decisions of which only 0 were on extended
We had 299610 decisions of which only 0 were on extended
We had 312949 decisions of which only 0 were on extended
We had 326332 decisions of which only 0 were on extended
We had 339660 decisions of which only 0 were on extended
We had 353369 decisions of which only 0 were on extended
Window full
Deactivate
We had 367462 decisions of which only 0 were on extended
We had 380925 decisions of which only 0 were on extended
We had 394266 decisions of which only 0 were on extended
We had 407639 decisions of which only 0 were on extended
We had 420958 decisions of which only 0 were on extended
We had 434244 decisions of which only 0 were on extended
We had 447996 decisions of which only 0 were on extended
We had 461635 decisions of which only 0 were on extended
We had 475688 decisions of which only 0 were on extended
We had 489218 decisions of which only 0 were on extended
We had 503105 decisions of which only 0 were on extended
We had 516985 decisions of which only 0 were on extended
We had 531158 decisions of which only 0 were on extended
We had 545211 decisions of which only 0 were on extended
We had 558840 decisions of which only 0 were on extended
We had 572929 decisions of which only 0 were on extended
We had 587219 decisions of which only 0 were on extended
We had 601719 decisions of which only 0 were on extended
We had 615956 decisions of which only 0 were on extended
c ===============================================================================
restarts                  : 1029
conflicts                 : 377705         (4284 /sec)
decisions                 : 626636         (0.00 % random) (7107 /sec)
propagations              : 18735486       (212495 /sec)
conflict literals         : 19954951       (23.40 % deleted)

conflicts w/ DIP found    : 115249         (30.51 % of conflicts)
conflicts w/ dangerous DIP: 0              (0.00 % of conflicts)
conflicts w/ DIP-learning : 0              (0.00 % of conflicts)
decisions on ext vars     : 0              (0.00 % of decisions)
total ext vars            : 0           
tried delete ext vars     : 0           
deleted ext vars          : 0           
max ext vars              : 0           

Memory used               : 52.00 MB
CPU time                  : 88.1692 s
DIP computation time      : 1.06543 s (1.21 % of total time)
ER_sel time               : 0.454473 s
ER_add time               : 0 s
ER_delC time              : 0 s
ER_delV time              : 0 s
ER_sub time               : 0.17188 s
ER_stat time              : 0 s

UNSATISFIABLE
